(set-info :smt-lib-version 2.6)
(set-logic QF_UFLRA)
(set-info :source |
MathSat group

|)
(set-info :category "random")
(set-info :status unsat)
(declare-fun x0 () Real)
(declare-fun x1 () Real)
(declare-fun x2 () Real)
(declare-fun x3 () Real)
(declare-fun x4 () Real)
(declare-fun x5 () Real)
(declare-fun x6 () Real)
(declare-fun x7 () Real)
(declare-fun x8 () Real)
(declare-fun x9 () Real)
(declare-fun x10 () Real)
(declare-fun x11 () Real)
(declare-fun x12 () Real)
(declare-fun x13 () Real)
(declare-fun x14 () Real)
(declare-fun x15 () Real)
(declare-fun x16 () Real)
(declare-fun x17 () Real)
(declare-fun x18 () Real)
(declare-fun x19 () Real)
(declare-fun x20 () Real)
(declare-fun x21 () Real)
(declare-fun x22 () Real)
(declare-fun x23 () Real)
(declare-fun x24 () Real)
(declare-fun x25 () Real)
(declare-fun x26 () Real)
(declare-fun x27 () Real)
(declare-fun x28 () Real)
(declare-fun x29 () Real)
(declare-fun f0_1 (Real) Real)
(declare-fun f0_2 (Real Real) Real)
(declare-fun f0_3 (Real Real Real) Real)
(declare-fun f0_4 (Real Real Real Real) Real)
(declare-fun P0 () Bool)
(declare-fun P1 () Bool)
(declare-fun P2 () Bool)
(declare-fun P3 () Bool)
(declare-fun P4 () Bool)
(declare-fun P5 () Bool)
(declare-fun P6 () Bool)
(declare-fun P7 () Bool)
(declare-fun P8 () Bool)
(declare-fun P9 () Bool)
(declare-fun P10 () Bool)
(declare-fun P11 () Bool)
(declare-fun P12 () Bool)
(declare-fun P13 () Bool)
(declare-fun P14 () Bool)
(declare-fun P15 () Bool)
(declare-fun P16 () Bool)
(declare-fun P17 () Bool)
(declare-fun P18 () Bool)
(declare-fun P19 () Bool)
(declare-fun P20 () Bool)
(declare-fun P21 () Bool)
(declare-fun P22 () Bool)
(declare-fun P23 () Bool)
(declare-fun P24 () Bool)
(declare-fun P25 () Bool)
(declare-fun P26 () Bool)
(declare-fun P27 () Bool)
(declare-fun P28 () Bool)
(declare-fun P29 () Bool)
(assert (let ((?v_58 (< (- (+ (* 23 x10) (* 25 x24)) (* 19 x26)) 27)) (?v_11 (* 3 x4))) (let ((?v_61 (< (- (- (* 23 x13) ?v_11) (* 31 x15)) 12)) (?v_13 (* 30 x14)) (?v_33 (< (- (- (* 29 x16) (* 18 x15)) (* 35 x24)) 11)) (?v_1 (<= (- (- (* 25 x7) (* 25 x1)) (* 24 x24)) 1)) (?v_124 (distinct (- (- (* 26 x18) (* 8 x26)) (* 36 x20)) 32)) (?v_86 (f0_1 x21))) (let ((?v_108 (= x18 ?v_86)) (?v_9 (f0_1 x16))) (let ((?v_31 (distinct x11 ?v_9)) (?v_119 (distinct x13 ?v_9)) (?v_57 (distinct (f0_2 x10 x16) (f0_2 x17 x25))) (?v_116 (= x25 ?v_86)) (?v_53 (distinct x14 x13)) (?v_39 (= (f0_2 x8 x26) x27)) (?v_154 (= x11 x4)) (?v_112 (f0_1 x25))) (let ((?v_109 (distinct (f0_2 x17 x16) ?v_112)) (?v_21 (f0_1 x9))) (let ((?v_79 (distinct (f0_2 x27 x20) ?v_21)) (?v_44 (distinct (f0_2 x7 x6) x18)) (?v_146 (distinct (f0_1 x4) x21)) (?v_74 (f0_1 x19))) (let ((?v_32 (= ?v_74 ?v_9)) (?v_16 (= (f0_2 x28 x5) (f0_1 x7))) (?v_14 (f0_1 x29))) (let ((?v_29 (distinct (f0_1 x3) ?v_14)) (?v_34 (f0_1 x12))) (let ((?v_55 (= x15 ?v_34)) (?v_22 (= (f0_2 x29 x15) x3)) (?v_52 (= x23 (f0_2 x12 x0))) (?v_17 (= (f0_2 x0 x22) (f0_1 x2))) (?v_103 (distinct x1 x6)) (?v_7 (f0_1 x8))) (let ((?v_8 (= ?v_7 (f0_1 x10))) (?v_89 (= ?v_86 (f0_2 x17 x18))) (?v_6 (distinct ?v_7 x26)) (?v_62 (distinct (f0_1 x0) ?v_21)) (?v_77 (= x16 ?v_74)) (?v_70 (= (f0_1 x17) x16)) (?v_138 (distinct x7 ?v_112)) (?v_63 (distinct x4 ?v_34)) (?v_46 (= x23 ?v_14)) (?v_59 (= x8 (f0_2 x19 x19))) (?v_115 (not ?v_108))) (let ((?v_66 (not ?v_46)) (?v_5 (not ?v_1)) (?v_41 (not ?v_124)) (?v_47 (not P25)) (?v_139 (not ?v_6)) (?v_19 (not P29)) (?v_38 (not P11)) (?v_102 (not P5)) (?v_45 (not P13)) (?v_40 (not P14)) (?v_12 (not ?v_32)) (?v_95 (not ?v_29)) (?v_20 (not ?v_16)) (?v_159 (not ?v_109)) (?v_26 (not ?v_39)) (?v_126 (not ?v_8)) (?v_23 (not ?v_62)) (?v_36 (not P6)) (?v_104 (not P24)) (?v_81 (not P9)) (?v_43 (not ?v_70)) (?v_83 (not ?v_55)) (?v_113 (not P26)) (?v_134 (not ?v_63)) (?v_82 (not ?v_31)) (?v_71 (not P17)) (?v_73 (not P10)) (?v_93 (not ?v_44)) (?v_91 (not ?v_53)) (?v_68 (not P2)) (?v_85 (not P15)) (?v_111 (not P28)) (?v_80 (not ?v_58)) (?v_64 (not ?v_52)) (?v_69 (not ?v_59)) (?v_60 (not ?v_57)) (?v_142 (not P21)) (?v_84 (not P23)) (?v_117 (not P16)) (?v_153 (not P8)) (?v_101 (not P19)) (?v_98 (not ?v_119)) (?v_97 (not ?v_146)) (?v_152 (not ?v_17)) (?v_88 (not P12)) (?v_132 (not ?v_77)) (?v_143 (not ?v_22)) (?v_87 (not ?v_61)) (?v_151 (not ?v_154)) (?v_110 (not ?v_89)) (?v_127 (not P20)) (?v_123 (not ?v_79)) (?v_144 (not P0)) (?v_133 (not P22)) (?v_118 (not ?v_103)) (?v_156 (not P27)) (?v_141 (not ?v_116)) (?v_122 (not P7)) (?v_140 (not P1)) (?v_137 (not P18))) (let ((?v_150 (or ?v_126 P29)) (?v_160 (not P4)) (?v_148 (not P3)) (?v_155 (not ?v_33)) (?v_136 (< (+ (* 16 x4) (* 3 x25)) 31))) (let ((?v_107 (not ?v_136)) (?v_131 (<= (+ (* 28 x2) (* 11 x1) (* 11 x17)) 7))) (let ((?v_75 (not ?v_131)) (?v_99 (< (- (- (* 33 x21) 0) (* 24 x7)) 9))) (let ((?v_120 (not ?v_99)) (?v_18 (distinct (- (+ (* (- 28) x23) (* 41 x7)) (* 3 x12)) 0))) (let ((?v_2 (not ?v_18)) (?v_0 (< (- (* (- 38) x18) x4) 2)) (?v_3 (<= (+ (* 29 x1) ?v_13 (* 2 x17)) (- 41)))) (let ((?v_27 (not ?v_0)) (?v_4 (<= (- (- (* (- 28) x14) (* 40 x22)) (* 5 x26)) (- 19)))) (let ((?v_96 (not ?v_4)) (?v_161 (or P5 ?v_2)) (?v_90 (< (+ (* (- 3) x9) (* 3 x14) (* 19 x12)) 34))) (let ((?v_129 (not ?v_90)) (?v_25 (= (+ (* 36 x1) x6 x21) (- 3))) (?v_10 (distinct (+ (* (- 19) x6) x28 (* 17 x19)) 5)) (?v_37 (< (+ (* 32 x24) (* 40 x1) (* 42 x22)) (- 34)))) (let ((?v_35 (not ?v_37)) (?v_24 (distinct (+ (- (* (- 27) x7) (* 22 x15)) (* 38 x2)) (- 29)))) (let ((?v_28 (not ?v_24)) (?v_15 (distinct (+ (* (- 16) x9) (* 38 x18) ?v_11) 1)) (?v_67 (<= (- (- 0 (* 33 x1)) ?v_13) (- 44))) (?v_30 (< (- (- (* (- 23) x12) (* 18 x6)) (* 8 x13)) 15)) (?v_72 (< (- (- (* (- 32) x4) (* 6 x4)) (* 2 x20)) 15))) (let ((?v_121 (not ?v_72)) (?v_51 (<= (- (* 23 x3) 0) (- 10)))) (let ((?v_42 (not ?v_51)) (?v_114 (distinct (- (- (* (- 15) x10) (* 33 x23)) (* 11 x4)) 38)) (?v_78 (= (+ (- (* (- 14) x11) (* 33 x27)) (* 35 x5)) (- 33)))) (let ((?v_157 (not ?v_78)) (?v_50 (not ?v_30)) (?v_54 (not ?v_10)) (?v_56 (not ?v_25)) (?v_92 (= (- (- (* (- 28) x5) (* 23 x24)) (* 10 x21)) (- 10))) (?v_49 (<= (+ (- (* (- 24) x10) (* 21 x25)) (* 22 x1)) 12))) (let ((?v_48 (not ?v_49)) (?v_65 (< (+ (* 9 x14) (* 35 x1) (* 42 x5)) (- 20))) (?v_100 (< (- (+ (* (- 36) x15) (* 11 x6)) (* 41 x13)) (- 15))) (?v_76 (<= (- (+ (* (- 16) x18) (* 24 x3)) (* 38 x26)) 3))) (let ((?v_105 (not ?v_65)) (?v_135 (not ?v_67)) (?v_106 (<= (- (* 24 x1) (* 25 x12)) (- 3))) (?v_125 (not ?v_76)) (?v_94 (not ?v_3)) (?v_158 (not ?v_100)) (?v_145 (or ?v_92 ?v_56)) (?v_149 (not ?v_92)) (?v_128 (not ?v_114))) (let ((?v_147 (not ?v_106)) (?v_130 (not ?v_15))) (and (and (and (and (and (and (and (and (and (and (and (and (and (and (and (and (and (and (and (and (and (and (and (and (and (and (and (and (and (and (and (and (and (and (and (and (and (and (and (and (and (and (and (and (and (and (and (and (and (and (and (and (and (and (and (and (and (and (and (and (and (and (and (and (and (and (and (and (and (and (and (and (and (and (and (and (and (and (and (and (and (and (and (and (and (and (and (and (and (and (and (and (and (and (and (and (and (and (and (and (and (and (and (and (and (and (and (and (and (and (and (and (and (and (and (and (and (and (and (and (and (and (and (and (and (and (and (and (and (and (and (and (and (and (and (and (and (and (and (and (and (and (and (and (and (and (and (and (and (and (and (and (and (and (and (and (and (and (and (and (and (and (and (and (and (and (and (and (and (and (and (and (and (and (and (and (and (and (and (and (and (and (and (and (and (and (and (and (and (and (and (and (and (and (and (and (and (and (and (and (and (and (and (and (and (and (and (and (and (and (and (and (and (and (and (and (and (and (and (and (and (and (and (and (and (and (and (and (and (and (and (and (and (and (and (and (and (and (and (and (and (and (and (and (and (and (and (and (and (and (and (and (and (and (and (and (and (and (and (and (and (and (and (and (and (and (and (and (and (and (and (and (and (and (and (and (and (and (and (and (and (and (and (and (and (and (and (and (and (and (and (and (and (and (and (and (and (and (and (and (and (and (and (and (and (and (and (and (and (and (and (and (and (and (and (and (and (and (and (and (and (and (and (and (and (and (and (and (and (and (and (and (and (and (and (and (and (and (and (and (and (and (and (and (and (and (and (and (and (and (and (and (and (and (and (and (and (and (and (or (or ?v_2 ?v_0) ?v_33) (or (or ?v_1 ?v_115) ?v_3)) (or (or ?v_27 ?v_66) ?v_5)) (or (or P14 ?v_41) ?v_47)) (or (or ?v_139 ?v_96) ?v_17)) (or ?v_161 P14)) (or (or ?v_61 ?v_107) ?v_57)) (or (or ?v_129 ?v_3) ?v_4)) (or (or ?v_19 ?v_38) ?v_52)) (or (or ?v_102 ?v_45) ?v_40)) (or (or ?v_12 ?v_25) ?v_5)) (or (or ?v_10 P3) ?v_58)) (or (or ?v_6 P7) ?v_8)) (or (or ?v_16 ?v_8) ?v_35)) (or (or P11 ?v_31) ?v_28)) (or (or ?v_10 ?v_15) P11)) (or (or ?v_12 ?v_67) ?v_95)) (or (or ?v_12 P1) ?v_30)) (or (or ?v_15 P12) ?v_20)) (or (or ?v_159 ?v_17) ?v_79)) (or (or ?v_22 ?v_18) ?v_26)) (or (or ?v_126 ?v_19) ?v_121)) (or (or ?v_20 ?v_23) ?v_36)) (or (or P9 ?v_22) ?v_23)) (or (or ?v_42 ?v_24) ?v_6)) (or (or ?v_114 ?v_6) ?v_25)) (or (or ?v_26 ?v_27) ?v_104)) (or (or ?v_157 ?v_28) P29)) (or (or ?v_29 ?v_81) P5)) (or (or ?v_43 ?v_83) ?v_50)) (or (or ?v_31 P5) ?v_32)) (or (or ?v_33 P13) ?v_113)) (or (or ?v_134 ?v_44) P24)) (or (or ?v_3 P17) ?v_82)) (or (or P23 ?v_35) ?v_27)) (or (or P18 P26) P21)) (or (or ?v_36 ?v_53) ?v_37)) (or (or P10 ?v_35) ?v_71)) (or (or ?v_54 ?v_32) ?v_56)) (or (or P22 ?v_38) ?v_39)) (or (or ?v_73 ?v_40) ?v_6)) (or (or ?v_41 ?v_75) ?v_25)) (or (or ?v_42 ?v_43) ?v_26)) (or (or P28 P3) ?v_44)) (or (or ?v_93 ?v_25) P16)) (or (or ?v_45 P7) P26)) (or (or ?v_46 P23) ?v_42)) (or (or ?v_92 ?v_48) ?v_47)) (or (or ?v_10 ?v_31) ?v_48)) (or (or ?v_65 ?v_20) ?v_49)) (or (or ?v_50 ?v_51) ?v_52)) (or (or ?v_91 ?v_68) ?v_54)) (or (or P29 ?v_85) ?v_42)) (or (or ?v_41 P26) P22)) (or (or ?v_55 ?v_55) ?v_15)) (or (or ?v_56 ?v_57) ?v_111)) (or (or ?v_80 ?v_64) P27)) (or (or P28 ?v_27) ?v_69)) (or (or ?v_8 ?v_100) ?v_60)) (or (or ?v_59 ?v_76) ?v_142)) (or (or ?v_60 ?v_10) ?v_4)) (or (or ?v_49 ?v_23) P12)) (or (or ?v_39 ?v_61) ?v_3)) (or (or ?v_62 ?v_63) ?v_54)) (or (or P24 ?v_84) ?v_64)) (or (or ?v_65 ?v_66) ?v_99)) (or (or ?v_117 ?v_67) ?v_153)) (or (or ?v_105 ?v_68) ?v_3)) (or (or ?v_101 P12) ?v_69)) (or (or ?v_98 ?v_97) ?v_70)) (or (or ?v_47 P2) ?v_71)) (or (or P7 P12) ?v_72)) (or (or ?v_152 P6) P29)) (or (or ?v_73 ?v_64) P12)) (or (or ?v_77 P28) ?v_135)) (or (or ?v_103 P8) ?v_75)) (or (or ?v_76 ?v_88) ?v_37)) (or (or P26 ?v_132) ?v_143)) (or (or ?v_78 ?v_79) ?v_106)) (or (or ?v_80 ?v_87) ?v_81)) (or (or ?v_6 ?v_82) ?v_79)) (or (or ?v_151 ?v_56) ?v_83)) (or (or P3 ?v_41) P15)) (or (or P19 ?v_36) ?v_84)) (or (or ?v_85 ?v_55) ?v_43)) (or (or P5 ?v_125) ?v_110)) (or (or ?v_87 ?v_83) ?v_58)) (or (or P12 ?v_88) ?v_70)) (or (or ?v_60 P12) ?v_26)) (or (or ?v_89 ?v_50) ?v_76)) (or (or ?v_90 ?v_15) ?v_81)) (or (or ?v_91 ?v_127) ?v_20)) (or (or ?v_12 ?v_0) ?v_123)) (or (or ?v_90 ?v_26) P8)) (or (or ?v_24 ?v_92) ?v_93)) (or (or ?v_92 ?v_36) ?v_0)) (or (or ?v_94 ?v_94) ?v_25)) (or (or ?v_69 ?v_77) ?v_32)) (or (or ?v_83 ?v_95) P21)) (or (or ?v_55 ?v_96) P14)) (or (or ?v_36 P5) ?v_91)) (or (or ?v_97 P24) P15)) (or (or ?v_50 ?v_43) ?v_80)) (or (or ?v_144 ?v_72) ?v_98)) (or (or ?v_72 P6) P2)) (or (or ?v_88 P29) ?v_0)) (or (or ?v_36 P14) ?v_72)) (or (or ?v_88 ?v_120) ?v_65)) (or (or ?v_158 ?v_101) P16)) (or (or ?v_38 ?v_6) ?v_61)) (or (or ?v_8 ?v_102) ?v_54)) (or (or ?v_103 ?v_24) ?v_72)) (or (or ?v_85 ?v_104) ?v_52)) (or (or ?v_105 ?v_1) P1)) (or (or ?v_5 ?v_4) ?v_23)) (or (or ?v_39 ?v_19) ?v_133)) (or (or ?v_73 P23) ?v_57)) (or (or ?v_97 ?v_106) P18)) (or (or ?v_20 ?v_77) ?v_45)) (or ?v_145 ?v_79)) (or (or ?v_66 ?v_91) P10)) (or (or ?v_105 ?v_118) ?v_80)) (or (or ?v_156 P25) ?v_60)) (or (or ?v_99 P21) ?v_104)) (or (or ?v_90 ?v_22) P15)) (or (or ?v_90 ?v_20) P29)) (or (or P16 ?v_107) ?v_57)) (or (or ?v_35 ?v_108) P4)) (or (or P28 ?v_24) ?v_109)) (or (or ?v_36 ?v_107) P0)) (or (or P13 ?v_61) ?v_110)) (or (or ?v_111 ?v_19) ?v_56)) (or (or P17 P17) ?v_141)) (or (or ?v_40 ?v_122) ?v_138)) (or (or P13 ?v_149) ?v_140)) (or (or ?v_90 ?v_65) ?v_77)) (or (or ?v_71 P3) P21)) (or (or ?v_5 P15) P20)) (or (or ?v_8 ?v_49) ?v_87)) (or (or ?v_10 ?v_73) P13)) (or (or ?v_47 ?v_113) ?v_63)) (or (or ?v_63 ?v_22) ?v_114)) (or (or ?v_115 ?v_137) ?v_116)) (or (or P2 ?v_71) ?v_78)) (or (or ?v_128 ?v_117) ?v_109)) (or (or P13 ?v_118) ?v_119)) (or (or ?v_22 ?v_120) P20)) (or (or P21 ?v_121) ?v_77)) (or (or P28 ?v_78) ?v_67)) (or (or P7 ?v_85) ?v_80)) (or (or P22 ?v_109) P14)) (or (or ?v_113 ?v_119) ?v_122)) (or (or ?v_69 ?v_23) ?v_81)) (or (or ?v_4 ?v_123) ?v_124)) (or (or P5 P17) ?v_47)) (or (or P12 ?v_95) ?v_125)) (or ?v_150 ?v_115)) (or (or ?v_147 P3) ?v_50)) (or (or ?v_65 ?v_0) ?v_130)) (or (or ?v_127 P3) ?v_117)) (or (or ?v_128 ?v_104) P4)) (or (or ?v_125 ?v_114) ?v_84)) (or (or ?v_129 ?v_92) P5)) (or (or ?v_130 ?v_29) ?v_72)) (or (or ?v_57 ?v_64) P22)) (or (or ?v_16 ?v_120) ?v_107)) (or (or ?v_113 ?v_35) ?v_131)) (or (or ?v_2 ?v_70) ?v_87)) (or (or P27 ?v_48) ?v_41)) (or (or P10 ?v_121) ?v_37)) (or (or P8 ?v_114) ?v_22)) (or (or ?v_1 ?v_6) ?v_16)) (or (or ?v_40 ?v_16) ?v_52)) (or (or ?v_78 ?v_132) P6)) (or (or ?v_123 ?v_38) ?v_72)) (or (or ?v_20 ?v_133) ?v_134)) (or (or P0 ?v_83) ?v_47)) (or (or ?v_53 P25) ?v_89)) (or (or ?v_125 ?v_65) ?v_73)) (or (or ?v_32 ?v_61) ?v_40)) (or (or ?v_126 ?v_67) ?v_77)) (or (or ?v_124 ?v_129) ?v_135)) (or (or ?v_136 ?v_31) ?v_111)) (or (or ?v_3 ?v_24) ?v_26)) (or (or ?v_76 ?v_137) ?v_138)) (or (or P7 ?v_61) ?v_37)) (or (or P9 P9) ?v_139)) (or (or ?v_160 ?v_125) ?v_140)) (or (or ?v_43 P18) ?v_122)) (or (or ?v_110 ?v_26) P23)) (or (or ?v_103 ?v_63) P18)) (or (or ?v_4 P8) ?v_94)) (or (or ?v_122 ?v_60) ?v_37)) (or (or ?v_139 P22) ?v_114)) (or (or ?v_66 ?v_140) ?v_77)) (or (or P4 ?v_69) ?v_115)) (or (or ?v_58 ?v_66) ?v_18)) (or (or ?v_4 ?v_8) ?v_87)) (or (or ?v_92 ?v_58) ?v_25)) (or (or ?v_140 ?v_127) ?v_27)) (or (or ?v_141 ?v_122) ?v_133)) (or (or ?v_117 ?v_43) ?v_56)) (or (or ?v_110 ?v_54) ?v_142)) (or (or ?v_19 ?v_19) ?v_40)) (or (or ?v_139 ?v_88) ?v_65)) (or (or ?v_110 ?v_135) P13)) (or (or ?v_17 ?v_119) ?v_81)) (or (or ?v_83 ?v_129) ?v_143)) (or (or ?v_144 ?v_120) ?v_52)) (or ?v_145 ?v_148)) (or (or ?v_49 P8) ?v_103)) (or (or ?v_70 ?v_138) ?v_146)) (or (or ?v_55 ?v_111) ?v_147)) (or (or ?v_148 ?v_149) ?v_135)) (or (or ?v_67 ?v_147) ?v_96)) (or (or ?v_54 ?v_85) ?v_22)) (or (or P6 ?v_142) ?v_143)) (or (or ?v_56 ?v_90) ?v_15)) (or (or ?v_72 ?v_85) ?v_41)) (or (or ?v_133 ?v_66) ?v_128)) (or (or ?v_140 ?v_79) ?v_58)) (or ?v_150 P28)) (or (or ?v_50 ?v_35) P28)) (or (or P29 ?v_49) ?v_46)) (or (or P6 ?v_130) ?v_24)) (or (or P21 P9) ?v_38)) (or (or ?v_105 P24) ?v_155)) (or (or P22 ?v_23) P19)) (or (or P17 ?v_151) ?v_3)) (or (or P20 ?v_147) ?v_18)) (or (or ?v_107 ?v_78) P12)) (or (or ?v_107 P18) P28)) (or (or ?v_17 ?v_106) P9)) (or (or ?v_91 ?v_71) ?v_152)) (or (or ?v_138 ?v_75) P23)) (or (or ?v_51 ?v_152) ?v_130)) (or (or ?v_59 P19) ?v_84)) (or (or P11 ?v_15) ?v_56)) (or (or ?v_75 ?v_67) ?v_126)) (or (or ?v_76 ?v_84) ?v_121)) (or (or ?v_82 ?v_101) ?v_49)) (or (or P5 ?v_95) ?v_105)) (or (or ?v_111 ?v_153) ?v_102)) (or (or P0 ?v_130) ?v_131)) (or (or ?v_102 ?v_108) ?v_130)) (or (or ?v_127 ?v_132) ?v_124)) (or (or P28 ?v_120) P12)) (or (or ?v_32 ?v_50) ?v_95)) (or (or ?v_105 P1) P26)) (or (or ?v_136 ?v_129) (not ?v_138))) (or (or ?v_64 ?v_136) ?v_15)) (or (or ?v_2 P12) ?v_129)) (or (or ?v_129 ?v_61) ?v_35)) (or (or ?v_151 ?v_148) ?v_45)) (or (or ?v_137 ?v_44) P20)) (or (or ?v_36 P10) ?v_110)) (or (or ?v_12 P6) ?v_61)) (or (or ?v_125 ?v_22) P12)) (or (or ?v_72 ?v_151) ?v_41)) (or (or ?v_30 ?v_65) P5)) (or (or P0 ?v_91) ?v_22)) (or (or ?v_84 ?v_40) ?v_99)) (or (or ?v_117 ?v_142) ?v_139)) (or (or ?v_119 P5) ?v_110)) (or (or ?v_92 ?v_154) ?v_75)) (or (or ?v_129 ?v_16) ?v_54)) (or (or ?v_132 ?v_94) ?v_39)) (or (or P6 ?v_99) ?v_30)) (or (or ?v_45 P18) ?v_89)) (or (or ?v_57 P16) P14)) (or (or ?v_58 ?v_3) ?v_29)) (or (or ?v_109 ?v_119) ?v_113)) (or (or ?v_135 ?v_70) ?v_15)) (or (or P6 ?v_53) ?v_8)) (or (or ?v_59 ?v_38) ?v_47)) (or (or ?v_5 ?v_155) ?v_76)) (or (or ?v_61 ?v_68) ?v_36)) (or (or P20 ?v_111) P7)) (or (or P14 P5) P15)) (or (or ?v_12 ?v_147) ?v_122)) (or (or ?v_143 ?v_106) ?v_36)) (or (or ?v_45 ?v_90) ?v_53)) (or (or ?v_99 ?v_90) ?v_26)) (or (or P16 ?v_70) P20)) (or (or ?v_110 ?v_132) P15)) (or (or ?v_73 ?v_92) ?v_153)) (or (or ?v_133 ?v_64) ?v_48)) (or (or ?v_103 ?v_28) ?v_113)) (or (or ?v_152 ?v_147) ?v_93)) (or (or ?v_149 ?v_128) ?v_130)) (or (or ?v_61 ?v_48) ?v_52)) (or (or ?v_151 ?v_155) ?v_12)) (or (or ?v_117 ?v_8) P5)) (or (or ?v_20 ?v_79) ?v_58)) (or (or ?v_27 ?v_87) ?v_44)) (or (or ?v_66 ?v_141) ?v_17)) (or (or ?v_50 ?v_48) ?v_151)) (or (or ?v_4 ?v_31) ?v_16)) (or (or ?v_105 ?v_61) ?v_136)) (or (or ?v_32 ?v_106) ?v_76)) (or (or ?v_96 ?v_19) ?v_67)) (or (or P23 ?v_46) ?v_51)) (or (or ?v_23 ?v_121) ?v_68)) (or (or ?v_113 ?v_30) ?v_125)) (or (or P20 ?v_77) P18)) (or (or ?v_92 ?v_37) P23)) (or (or ?v_27 ?v_33) P25)) (or (or ?v_79 ?v_16) ?v_110)) (or (or ?v_66 ?v_60) ?v_134)) (or (or ?v_113 ?v_96) ?v_29)) (or (or ?v_35 ?v_154) ?v_16)) (or (or ?v_19 ?v_111) ?v_152)) (or (or ?v_37 P8) ?v_155)) (or (or ?v_146 ?v_93) ?v_137)) (or (or ?v_65 ?v_3) ?v_67)) (or (or P23 P8) ?v_54)) (or (or ?v_156 P5) ?v_90)) (or (or ?v_66 ?v_97) ?v_83)) (or (or ?v_157 ?v_0) ?v_22)) (or (or ?v_4 ?v_155) ?v_95)) (or (or ?v_154 ?v_61) P9)) (or (or P16 ?v_68) ?v_49)) (or (or ?v_158 ?v_141) ?v_55)) (or (or ?v_61 ?v_146) ?v_95)) (or (or ?v_157 P7) ?v_146)) (or (or ?v_137 ?v_157) P5)) (or (or ?v_102 ?v_107) ?v_115)) (or (or ?v_65 ?v_29) ?v_28)) (or (or ?v_122 P19) ?v_129)) (or (or ?v_118 ?v_122) ?v_113)) (or (or ?v_62 ?v_50) ?v_42)) (or (or ?v_31 ?v_159) ?v_29)) (or (or ?v_30 ?v_88) ?v_132)) (or (or P9 ?v_118) ?v_120)) (or (or ?v_108 ?v_59) P29)) (or (or ?v_24 ?v_124) P8)) (or (or ?v_81 ?v_116) P10)) (or (or ?v_147 ?v_37) ?v_155)) (or (or ?v_158 ?v_98) ?v_53)) (or (or P27 ?v_43) ?v_160)) (or (or ?v_130 ?v_78) ?v_148)) (or (or ?v_159 P26) ?v_115)) (or (or ?v_25 ?v_20) ?v_120)) (or (or ?v_82 ?v_142) ?v_101)) (or (or ?v_37 ?v_47) ?v_127)) (or (or ?v_138 ?v_16) ?v_115)) (or (or ?v_116 P22) ?v_90)) (or (or P24 ?v_125) ?v_58)) (or (or ?v_124 ?v_55) ?v_28)) (or ?v_161 ?v_73)) (or (or ?v_55 ?v_84) ?v_60)) (or (or ?v_122 ?v_124) ?v_134)) (or (or ?v_39 ?v_48) P21)) (or (or ?v_136 P16) ?v_97)) (or (or ?v_51 ?v_50) ?v_24)) (or (or ?v_159 ?v_59) ?v_131)) (or (or ?v_113 ?v_52) ?v_30)) (or (or ?v_143 ?v_48) ?v_149)) (or (or P28 ?v_63) P29)) (or (or ?v_50 ?v_36) P9))))))))))))))))))))))))))))))
(check-sat)
(exit)
